NAME: rue_20_8
TYPE: TSP
DIMENSION: 20
EDGE_WEIGHT_TYPE: EUC_2D
NODE_COORD_SECTION
1 48 36
2 61 79
3 39 90
4 84 9
5 11 80
6 51 8
7 4 70
8 87 97
9 24 57
10 16 16
11 82 4
12 6 95
13 65 40
14 10 52
15 93 95
16 43 99
17 5 51
18 52 47
19 51 10
20 93 25
